\* PLNE - Maximisation de la somme des utilités *\
Maximize
 obj: 15 x_0_5 + 10 x_0_7 + 18 x_0_6 + 13 x_0_8 + 3 x_0_3 + 9 x_1_6 + 16 x_1_5 + 3 x_1_0 + 8 x_1_4 + 9 x_1_7 + 10 x_2_4 + 9 x_2_0 + 3 x_2_7 + 6 x_2_2 + 10 x_2_8 + 11 x_3_6 + 10 x_3_5 + 12 x_3_7 + 8 x_3_0 + 12 x_3_8 + 9 x_4_1 + 9 x_4_6 + 6 x_4_7 + 11 x_4_5 + 14 x_4_0 + 17 x_5_0 + 9 x_5_7 + 4 x_5_4 + 8 x_5_2 + 7 x_5_8 + 8 x_6_5 + 16 x_6_7 + 11 x_6_6 + 11 x_6_2 + 7 x_6_8 + 12 x_7_7 + 1 x_7_0 + 2 x_7_4 + 14 x_7_2 + 11 x_7_8 + 6 x_8_5 + 7 x_8_7 + 10 x_8_6 + 2 x_8_2 + 5 x_8_8 + 5 x_9_2 + 4 x_9_6 + 7 x_9_5 + 8 x_9_8 + 2 x_9_3 + 4 x_10_6 + 13 x_10_4 + 10 x_10_0 + 3 x_10_8 + 8 x_10_3
Subject To
 c_assign_0: x_0_5 + x_0_7 + x_0_6 + x_0_8 + x_0_3 = 1
 c_assign_1: x_1_6 + x_1_5 + x_1_0 + x_1_4 + x_1_7 = 1
 c_assign_2: x_2_4 + x_2_0 + x_2_7 + x_2_2 + x_2_8 = 1
 c_assign_3: x_3_6 + x_3_5 + x_3_7 + x_3_0 + x_3_8 = 1
 c_assign_4: x_4_1 + x_4_6 + x_4_7 + x_4_5 + x_4_0 = 1
 c_assign_5: x_5_0 + x_5_7 + x_5_4 + x_5_2 + x_5_8 = 1
 c_assign_6: x_6_5 + x_6_7 + x_6_6 + x_6_2 + x_6_8 = 1
 c_assign_7: x_7_7 + x_7_0 + x_7_4 + x_7_2 + x_7_8 = 1
 c_assign_8: x_8_5 + x_8_7 + x_8_6 + x_8_2 + x_8_8 = 1
 c_assign_9: x_9_2 + x_9_6 + x_9_5 + x_9_8 + x_9_3 = 1
 c_assign_10: x_10_6 + x_10_4 + x_10_0 + x_10_8 + x_10_3 = 1
 c_capacity_0: x_1_0 + x_2_0 + x_3_0 + x_4_0 + x_5_0 + x_7_0 + x_10_0 <= 2
 c_capacity_1: x_4_1 <= 1
 c_capacity_2: x_2_2 + x_5_2 + x_6_2 + x_7_2 + x_8_2 + x_9_2 <= 1
 c_capacity_3: x_0_3 + x_9_3 + x_10_3 <= 1
 c_capacity_4: x_1_4 + x_2_4 + x_5_4 + x_7_4 + x_10_4 <= 1
 c_capacity_5: x_0_5 + x_1_5 + x_3_5 + x_4_5 + x_6_5 + x_8_5 + x_9_5 <= 1
 c_capacity_6: x_0_6 + x_1_6 + x_3_6 + x_4_6 + x_6_6 + x_8_6 + x_9_6 + x_10_6 <= 1
 c_capacity_7: x_0_7 + x_1_7 + x_2_7 + x_3_7 + x_4_7 + x_5_7 + x_6_7 + x_7_7 + x_8_7 <= 1
 c_capacity_8: x_0_8 + x_2_8 + x_3_8 + x_5_8 + x_6_8 + x_7_8 + x_8_8 + x_9_8 + x_10_8 <= 2
 c_min_utility_0: 15 x_0_5 + 10 x_0_7 + 18 x_0_6 + 13 x_0_8 + 3 x_0_3 >= 4
 c_min_utility_1: 9 x_1_6 + 16 x_1_5 + 3 x_1_0 + 8 x_1_4 + 9 x_1_7 >= 4
 c_min_utility_2: 10 x_2_4 + 9 x_2_0 + 3 x_2_7 + 6 x_2_2 + 10 x_2_8 >= 4
 c_min_utility_3: 11 x_3_6 + 10 x_3_5 + 12 x_3_7 + 8 x_3_0 + 12 x_3_8 >= 4
 c_min_utility_4: 9 x_4_1 + 9 x_4_6 + 6 x_4_7 + 11 x_4_5 + 14 x_4_0 >= 4
 c_min_utility_5: 17 x_5_0 + 9 x_5_7 + 4 x_5_4 + 8 x_5_2 + 7 x_5_8 >= 4
 c_min_utility_6: 8 x_6_5 + 16 x_6_7 + 11 x_6_6 + 11 x_6_2 + 7 x_6_8 >= 4
 c_min_utility_7: 12 x_7_7 + 1 x_7_0 + 2 x_7_4 + 14 x_7_2 + 11 x_7_8 >= 4
 c_min_utility_8: 6 x_8_5 + 7 x_8_7 + 10 x_8_6 + 2 x_8_2 + 5 x_8_8 >= 4
 c_min_utility_9: 5 x_9_2 + 4 x_9_6 + 7 x_9_5 + 8 x_9_8 + 2 x_9_3 >= 4
 c_min_utility_10: 4 x_10_6 + 13 x_10_4 + 10 x_10_0 + 3 x_10_8 + 8 x_10_3 >= 4
Binary
 x_0_5
 x_0_7
 x_0_6
 x_0_8
 x_0_3
 x_1_6
 x_1_5
 x_1_0
 x_1_4
 x_1_7
 x_2_4
 x_2_0
 x_2_7
 x_2_2
 x_2_8
 x_3_6
 x_3_5
 x_3_7
 x_3_0
 x_3_8
 x_4_1
 x_4_6
 x_4_7
 x_4_5
 x_4_0
 x_5_0
 x_5_7
 x_5_4
 x_5_2
 x_5_8
 x_6_5
 x_6_7
 x_6_6
 x_6_2
 x_6_8
 x_7_7
 x_7_0
 x_7_4
 x_7_2
 x_7_8
 x_8_5
 x_8_7
 x_8_6
 x_8_2
 x_8_8
 x_9_2
 x_9_6
 x_9_5
 x_9_8
 x_9_3
 x_10_6
 x_10_4
 x_10_0
 x_10_8
 x_10_3
End
